p cnf 21 9
e 1 0
a 2 0
e 3 0
a 4 5 6 7 8 0
e 9 0
a 10 0
e 11 12 13 0
a 14 0
e 15 0
a 16 17 0
e 18 19 20 0
a 21 0
-8 -14 0
-5 -11 8 -19 6 0
2 -5 -16 12 18 0
-19 -6 -1 -12 -3 0
15 3 0
-9 21 -3 0
20 6 -3 0
3 -4 19 0
-1 -10 15 8 -6 0
